(set-logic CHC_LIA)

(synth-fun state ((x_0 Bool) (x_1 Bool) (x_2 Bool) (x_3 Bool) (x_4 Bool) (x_5 Int) (x_6 Int) (x_7 Int) (x_8 Int) (x_9 Int)) Bool)

(constraint (forall ((.s.1 Bool) (.s.0 Bool) (.s.2 Bool) (.s.3 Bool) (.s.4 Bool) (n Int) (main.l Int) (main.k Int) (main.j Int) (main.i Int)) (=> (and (not .s.1) .s.0 (not .s.2) (not .s.3) (not .s.4)) (state .s.1 .s.0 .s.2 .s.3 .s.4 n main.l main.k main.j main.i))))
(constraint (forall ((.s.1 Bool) (.s.0 Bool) (.s.2 Bool) (.s.3 Bool) (.s.4 Bool) (n Int) (main.l Int) (main.k Int) (main.j Int) (main.i Int) (n.next Int) (main.l.next Int) (main.k.next Int) (main.j.next Int) (main.i.next Int) (.s.4.next Bool) (.s.3.next Bool) (.s.2.next Bool) (.s.1.next Bool) (.s.0.next Bool) (.inputVar.0 Int)) (let ((a!1 (and .s.4 (and .s.3 (and .s.2 (and .s.1 .s.0))))) (a!2 (and (not .s.3.next) (and (not .s.2.next) (and (not .s.1.next) (not .s.0.next))))) (a!4 (and .s.3 (and .s.2 (and .s.1 (not .s.0))))) (a!5 (and (not .s.3.next) (and .s.2.next (and (not .s.1.next) (not .s.0.next))))) (a!7 (and .s.3 (and (and (not .s.1) .s.0) .s.2))) (a!8 (= (+ main.i (* (- 1) main.i.next)) 1)) (a!9 (and .s.3.next (and .s.2.next (and .s.1.next (not .s.0.next))))) (a!10 (and .s.3 (and .s.2 (and (not .s.1) (not .s.0))))) (a!11 (and .s.3.next (and .s.2.next (and (not .s.1.next) .s.0.next)))) (a!12 (and .s.4 (and .s.3 (and (not .s.2) (and .s.1 .s.0))))) (a!13 (and .s.3.next (and .s.2.next (and (not .s.1.next) (not .s.0.next))))) (a!15 (and .s.3 (and (not .s.2) (and .s.1 (not .s.0))))) (a!16 (and .s.3.next (and (not .s.2.next) (and (not .s.1.next) (not .s.0.next))))) (a!17 (and (and (and (not .s.1) .s.0) (not .s.2)) .s.3)) (a!18 (and .s.3.next (and (not .s.2.next) (and .s.1.next (not .s.0.next))))) (a!19 (= (+ main.j (* (- 1) main.j.next)) (- 1))) (a!20 (and .s.3 (and (not .s.2) (and (not .s.1) (not .s.0))))) (a!22 (and (= n n.next) (= main.l main.l.next) (= main.k main.k.next) (= main.j main.j.next) (= main.i main.i.next) .s.4.next (and .s.3.next (and (not .s.2.next) (and .s.1.next .s.0.next))))) (a!23 (and .s.3.next (and (not .s.2.next) (and (not .s.1.next) .s.0.next)))) (a!25 (and .s.4 (and (not .s.3) (and .s.2 (and .s.1 .s.0))))) (a!26 (and (not .s.3) (and .s.2 (and .s.1 (not .s.0))))) (a!27 (and (= n n.next) (= main.l main.l.next) (= main.k main.k.next) (= main.j main.j.next) (= main.i main.i.next) .s.4.next (and (not .s.3.next) (and .s.2.next (and .s.1.next .s.0.next))))) (a!28 (and (not .s.3) (and (and (not .s.1) .s.0) .s.2))) (a!29 (and (not .s.4.next) (and .s.3.next (and .s.2.next (and .s.1.next .s.0.next))))) (a!30 (and (not .s.3) (and .s.2 (and (not .s.1) (not .s.0))))) (a!31 (and (not .s.3.next) (and .s.2.next (and (not .s.1.next) .s.0.next)))) (a!32 (and .s.4 (and (not .s.3) (and (not .s.2) (and .s.1 .s.0))))) (a!33 (and .s.4.next (not .s.3.next) (and (not .s.2.next) (and (not .s.1.next) .s.0.next)))) (a!34 (and (not .s.3) (and (not .s.2) (and .s.1 (not .s.0))))) (a!35 (= (+ main.k (* (- 1) main.k.next)) (- 1))) (a!37 (and (and (and (not .s.1) .s.0) (not .s.2)) (not .s.3))) (a!38 (and (not .s.3.next) (and (not .s.2.next) (and .s.1.next (not .s.0.next))))) (a!41 (and (not .s.3) (and (not .s.2) (and (not .s.1) (not .s.0))))) (a!42 (and (not .s.4) (and .s.3 (and .s.2 (and .s.1 .s.0))))) (a!44 (and (not .s.3.next) (and .s.2.next (and .s.1.next (not .s.0.next))))) (a!50 (and (not .s.4) (and .s.3 (and (not .s.2) (and .s.1 .s.0))))) (a!51 (and (= n n.next) (= main.l main.l.next) (= main.k main.k.next) (= main.j main.j.next) (= main.i main.i.next) (not .s.4.next) (and .s.3.next (and (not .s.2.next) (and .s.1.next .s.0.next))))) (a!57 (and (not .s.4) (and (not .s.3) (and .s.2 (and .s.1 .s.0))))) (a!61 (and (= n n.next) (= main.l main.l.next) (= main.k main.k.next) (= main.j main.j.next) (= main.i main.i.next) (not .s.4.next) (and (not .s.3.next) (and .s.2.next (and .s.1.next .s.0.next))))) (a!65 (and (= n n.next) (= main.l main.l.next) (= main.k main.k.next) (= main.j main.j.next) (= main.i main.i.next) .s.4.next (and .s.3.next (and .s.2.next (and .s.1.next .s.0.next))))) (a!67 (and (not .s.4) (and (not .s.3) (and (not .s.2) (and .s.1 .s.0))))) (a!71 (and (= n n.next) (= main.l main.l.next) (= main.k main.k.next) (= main.j main.j.next) (= main.i main.i.next) (not .s.4.next) (and (not .s.3.next) (and (not .s.2.next) (and .s.1.next .s.0.next)))))) (let ((a!3 (and (= n n.next) (= main.l main.l.next) (= main.k main.k.next) (= main.j main.j.next) (= main.i main.i.next) (not .s.4.next) a!2)) (a!6 (or (not (and .s.4 a!4)) (and (= n n.next) (= main.l main.l.next) (= main.k main.k.next) (= main.j main.j.next) (= main.i main.i.next) (and (not .s.4.next) a!5)))) (a!14 (and (= n n.next) (= main.l main.l.next) (= main.k main.k.next) (= main.j main.j.next) (= main.i main.i.next) .s.4.next a!13)) (a!21 (not (and (and .s.4 a!20) (not (<= main.j n))))) (a!24 (or (not (and (and .s.4 a!20) (<= main.j n))) (and (= n n.next) (= main.l main.l.next) (= main.k main.k.next) (= main.j main.j.next) (= main.i main.i.next) .s.4.next a!23))) (a!36 (and (= n n.next) (= main.l main.l.next) (= main.j main.j.next) (= main.i main.i.next) a!35 .s.4.next (and (not .s.3.next) (and (not .s.2.next) (and .s.1.next .s.0.next))))) (a!39 (or (not (and (and a!37 .s.4) (<= main.k n))) (and (= n n.next) (= main.l main.l.next) (= main.k main.k.next) (= main.j main.j.next) (= main.i main.i.next) .s.4.next a!38))) (a!40 (not (and (and a!37 .s.4) (not (<= main.k n))))) (a!43 (not (and (not (<= main.j n)) a!42))) (a!45 (or (not (and (<= main.j n) a!42)) (and (= n n.next) (= main.l main.l.next) (= main.k main.k.next) (= main.j main.j.next) (= main.i main.i.next) .s.4.next a!2))) (a!46 (or (not (and (not .s.4) a!4)) (and (= n n.next) (= main.l main.l.next) (= main.k main.k.next) (= main.i main.i.next) (= main.l main.j.next) a!29))) (a!47 (and (= n n.next) (= main.l main.l.next) (= main.k main.k.next) (= main.j main.j.next) (= main.i main.i.next) (not .s.4.next) a!11)) (a!49 (or (not (and (not .s.4) a!10)) (and (= n n.next) (= main.l main.l.next) (= main.k main.k.next) (= main.j main.j.next) (= main.i main.i.next) (and (not .s.4.next) a!16)))) (a!52 (or (not (and (not .s.4) a!15)) a!51)) (a!53 (not (and (and (not .s.4) a!17) (not (<= 1 main.j))))) (a!54 (not (and (and (not .s.4) a!17) (<= 1 main.j)))) (a!55 (not (and (not (<= main.j n)) (and (not .s.4) a!20)))) (a!56 (not (and (<= main.j n) (and (not .s.4) a!20)))) (a!58 (or (not a!57) (and (= n n.next) (= main.l main.l.next) (= main.k main.k.next) (= main.i main.i.next) (= main.l main.j.next) (and (not .s.4.next) a!16)))) (a!59 (not (and (and (not .s.4) a!26) (not (= .inputVar.0 0))))) (a!60 (not (and (and (not .s.4) a!26) (= .inputVar.0 0)))) (a!62 (not (and (and (not .s.4) a!28) (not (<= n main.i))))) (a!63 (not (and (and (not .s.4) a!28) (<= n main.i)))) (a!64 (not (and (and (not .s.4) a!30) (not (<= 1 main.i))))) (a!66 (not (and (and (not .s.4) a!30) (<= 1 main.i)))) (a!68 (or (not a!67) (and (= n n.next) (= main.l main.l.next) (= main.k main.k.next) (= main.j main.j.next) (and (not .s.4.next) a!5) (= n main.i.next)))) (a!70 (not (and (and a!37 (not .s.4)) (not (<= main.l 1))))) (a!72 (not (and (and a!37 (not .s.4)) (<= main.l 1))))) (let ((a!48 (or (not (and (not .s.4) a!7)) a!47)) (a!69 (or a!3 (not (and (not .s.4) a!34)))) (a!73 (or a!3 (not (and (not .s.4) a!41))))) (let ((a!74 (and (state .s.1 .s.0 .s.2 .s.3 .s.4 n main.l main.k main.j main.i) (or (not a!1) a!3) a!6 (or (not (and .s.4 a!7)) (and (= n n.next) (= main.l main.l.next) (= main.k main.k.next) (= main.j main.j.next) a!8 .s.4.next a!9)) (or (not (and .s.4 a!10)) (and (= n n.next) (= main.k main.k.next) (= main.j main.j.next) (= main.i main.i.next) (= main.l.next main.i) .s.4.next a!11)) (or (not a!12) a!14) (or (not (and .s.4 a!15)) (and (= n n.next) (= main.l main.l.next) (= main.k main.k.next) (= main.j main.j.next) (= main.i main.i.next) (and .s.4.next a!16))) (or (not (and .s.4 a!17)) (and (= n n.next) (= main.l main.l.next) (= main.k main.k.next) (= main.i main.i.next) .s.4.next a!18 a!19)) (or a!21 a!22) a!24 (or (not a!25) (and (= n n.next) (= main.l main.l.next) (= main.k main.k.next) (= main.i main.i.next) (and .s.4.next a!16) (= main.l main.j.next))) (or (not (and .s.4 a!26)) a!27) (or (not (and .s.4 a!28)) (and (= n n.next) (= main.l main.l.next) (= main.k main.k.next) (= main.j main.j.next) (= main.i main.i.next) a!29)) (or (not (and .s.4 a!30)) (and (= n n.next) (= main.l main.l.next) (= main.k main.k.next) (= main.i main.i.next) a!19 .s.4.next a!31)) (or (not a!32) (and (= n n.next) (= main.l main.l.next) (= main.k main.k.next) (= main.j main.j.next) (= main.i main.i.next) a!33)) (or (not (and .s.4 a!34)) a!36) a!39 (or a!40 (and (= n n.next) (= main.l main.l.next) (= main.k main.k.next) (= main.j main.j.next) (= main.i main.i.next) .s.4.next a!5)) (or (not (and .s.4 a!41)) (and (= n n.next) (= main.l main.l.next) (= main.j main.j.next) (= main.i main.i.next) a!33 (= main.l main.k.next))) (or a!43 (and (= n n.next) (= main.l main.l.next) (= main.k main.k.next) (= main.j main.j.next) (= main.i main.i.next) .s.4.next a!44)) a!45 a!46 a!48 a!49 (or (not a!50) (and (= n n.next) (= main.l main.l.next) (= main.k main.k.next) (= main.i main.i.next) a!19 (not .s.4.next) a!13)) a!52 (or a!47 a!53) (or a!54 (and (= n n.next) (= main.l main.l.next) (= main.k main.k.next) (= main.j main.j.next) (= main.i main.i.next) (not .s.4.next) a!18)) (or a!55 (and (= n n.next) (= main.l main.l.next) (= main.k main.k.next) (= main.j main.j.next) (= main.i main.i.next) (not .s.4.next) a!9)) (or a!56 (and (= n n.next) (= main.l main.l.next) (= main.k main.k.next) (= main.j main.j.next) (= main.i main.i.next) (not .s.4.next) a!23)) a!58 (or a!27 a!59) (or a!60 a!61) (or a!62 (and (= n n.next) (= main.l main.l.next) (= main.k main.k.next) (= main.j main.j.next) (= main.i main.i.next) (not .s.4.next) a!44)) (or a!14 a!63) (or a!64 a!65) (or a!66 (and (= n n.next) (= main.l main.l.next) (= main.k main.k.next) (= main.j main.j.next) (= main.i main.i.next) (not .s.4.next) a!31)) a!68 a!69 (or a!70 a!71) (or a!72 (and (= n n.next) (= main.l main.l.next) (= main.k main.k.next) (= main.j main.j.next) (= main.i main.i.next) (not .s.4.next) a!38)) a!73))) (=> a!74 (state .s.1.next .s.0.next .s.2.next .s.3.next .s.4.next n.next main.l.next main.k.next main.j.next main.i.next))))))))
(constraint (forall ((.s.1 Bool) (.s.0 Bool) (.s.2 Bool) (.s.3 Bool) (.s.4 Bool) (n Int) (main.l Int) (main.k Int) (main.j Int) (main.i Int)) (let ((a!1 (not (not (and (not .s.4) .s.3 (not .s.1) .s.0 .s.2))))) (=> (and (state .s.1 .s.0 .s.2 .s.3 .s.4 n main.l main.k main.j main.i) a!1) false))))

(check-synth)

